Traveling Salesman Problem/TSP_generados/Aleatorio1620390944_10.tsp
NAME: Aleatorio1620390944_10.tsp
COMMENT: Randomly generated scenario
TYPE: TSP
DIMENSION: 10
EDGE_WEIGHT_TYPE: ATT
NODE_COORD_SECTION
1 49.01 41.11
2 48.29 22.88
3 4.26 45.71
4 38.93 7.24
5 9.37 45.23
6 27.39 21.02
7 20.29 35.67
8 45.65 40.54
9 47.6 5.28
10 48.29 47.43
