Traveling Salesman Problem/TSP_generados/Aleatorio1620390944_10.opt.tour
NAME: Aleatorio1620390944_10.opt.tour
COMMENT: Optimal solution for Aleatorio1620390944_10 (151.4103514049047)
TYPE: TOUR
DIMENSION: 10
TOUR_SECTION
1 8 2 9 4 6 7 3 5 10
-1
EOF
